CMD:
./solvers/bin/cadical --plain --no-reduce -t 1600 ./data/cnfs//6s43/6s43.26.cnf

c --- [ banner ] -------------------------------------------------------------
c 
c CaDiCaL SAT Solver
c Copyright (c) 2016-2024
c A. Biere, M. Fleury, N. Froleyks, K. Fazekas, F. Pollitt, T. Faller
c JKU Linz, University of Freiburg, TU Wien
c 
c Version 2.1.3 5296d3d2a9bf48c154ab2acb5e44625776d821bf
c g++ (Gentoo 12.3.1_p20230526 p2) 12.3.1 20230526 -Wall -Wextra -O3 -DNDEBUG
c Sat Aug 9 07:26:21 PDT 2025 Linux cedar2.int.cedar.computecanada.ca 5.14.0-362.24.2.el9_3.x86_64 x86_64
c 
c --- [ limit ] --------------------------------------------------------------
c 
c setting time limit to 1600 seconds real time (due to '-t 1600')
c 
c --- [ parsing input ] ------------------------------------------------------
c 
c reading DIMACS file from './data/cnfs//6s43/6s43.26.cnf'
c opening file to read './data/cnfs//6s43/6s43.26.cnf'
c found 'p cnf 201829 601094' header
c parsed 601094 clauses in 0.10 seconds process time
c 
c --- [ options ] ------------------------------------------------------------
c 
c   --compact=false                (different from default 'true')
c   --decompose=false              (different from default 'true')
c   --deduplicate=false            (different from default 'true')
c   --elim=false                   (different from default 'true')
c   --probe=false                  (different from default 'true')
c   --reduce=false                 (different from default 'true')
c   --subsume=false                (different from default 'true')
c   --ternary=false                (different from default 'true')
c   --transred=false               (different from default 'true')
c   --vivify=false                 (different from default 'true')
c 
c --- [ solving ] ------------------------------------------------------------
c 
c time measured in process time since initialization
c 
c  seconds  reductions  redundant  irredundant
c         MB    restarts       trail       variables
c          level   conflicts       glue          remaining
c 
c *  0.10 91  0 0   0    0    0  0% 0 539122 166452 82%
c {  0.12 92  0 0   0    0    0  0% 0 539122 166452 82%
c i  0.13 92 17 0   0    3    2 18% 1 539122 166450 82%
c i  0.13 92 34 0   0   23   21 22% 2 539122 166448 82%
c i  0.13 93 25 0   5   42   37 21% 3 539122 166447 82%
c i  0.13 93 24 0   5   44   38 21% 3 539122 166446 82%
c i  0.14 93 25 0   5   55   47 22% 3 539122 166444 82%
c i  0.17 93 32 0  24  265  238 25% 3 539122 166443 82%
c i  0.26 93 32 0  59  470  407 26% 4 539122 166379 82%
c i  0.26 93 31 0  59  473  407 26% 4 539122 166322 82%
c i  0.26 93 31 0  59  475  408 26% 4 539122 166261 82%
c i  0.27 93 32 0  59  506  435 26% 4 539122 166166 82%
c i  0.27 93 31 0  59  546  472 26% 4 539122 166071 82%
c i  0.30 94 31 0  60  624  543 27% 4 539122 165999 82%
c i  0.31 94 29 0  63  739  634 26% 4 539122 165973 82%
c i  0.33 94 30 0  68  799  689 27% 4 539122 165916 82%
c }  0.35 94 29 0  71 1002  869 26% 3 539122 165916 82%
c [  0.35 94  0 0  71 1002  869  0% 0 539122 165916 82%
c O  0.36 94 58 0  71 1003  870 33% 2 539122 165916 82%
c ]  0.64 94 218 0  72 3002 2735 47% 16 539122 165916 82%
c 
c  seconds  reductions  redundant  irredundant
c         MB    restarts       trail       variables
c          level   conflicts       glue          remaining
c 
c {  0.64 94 29 0  72 3002 2735 26% 3 539122 165916 82%
c F  0.65 94 29 0  73 3004 2737 26% 4 539122 165916 82%
c i  0.68 95 30 0  92 3094 2808 26% 4 539122 165875 82%
c i  0.71 95 30 0 105 3149 2856 26% 4 539122 165854 82%
c i  0.71 95 30 0 105 3150 2856 26% 4 539122 165852 82%
c i  0.71 95 30 0 107 3155 2859 26% 4 539122 165840 82%
c i  0.74 95 30 0 117 3193 2896 26% 4 539122 165710 82%
c i  0.80 95 31 0 128 3434 3112 26% 4 539122 165682 82%
c i  0.84 95 30 0 135 3637 3283 26% 4 539122 165656 82%
c i  0.86 95 29 0 146 3701 3335 26% 4 539122 165651 82%
c i  1.03 95 29 0 222 4114 3711 26% 4 539122 165649 82%
c i  1.03 95 29 0 222 4115 3711 26% 4 539122 165648 82%
c i  1.03 95 28 0 223 4126 3720 26% 4 539122 165647 82%
c i  1.03 95 28 0 223 4127 3720 26% 4 539122 165633 82%
c i  1.10 95 29 0 234 4196 3784 26% 4 539122 165623 82%
c i  1.17 95 29 0 268 4334 3911 26% 4 539122 165619 82%
c i  1.18 95 29 0 269 4336 3912 26% 4 539122 165578 82%
c i  1.18 95 29 0 269 4338 3913 26% 4 539122 165456 82%
c i  1.18 95 29 0 269 4339 3913 26% 4 539122 165454 82%
c i  1.19 95 29 0 273 4349 3922 26% 4 539122 165453 82%
c 
c  seconds  reductions  redundant  irredundant
c         MB    restarts       trail       variables
c          level   conflicts       glue          remaining
c 
c i  1.24 95 29 0 287 4410 3978 26% 4 539122 165452 82%
c i  1.24 95 29 0 288 4411 3978 26% 4 539122 165446 82%
c i  1.24 95 29 0 289 4419 3984 26% 4 539122 165410 82%
c i  1.26 95 29 0 289 4455 4018 27% 4 539122 165400 82%
... skipped 31 lines ...
c i  2.07 96 27 0 599 6409 5698 27% 5 539122 164703 82%
c i  2.11 96 27 0 620 6498 5775 27% 5 539122 164702 82%
c i  2.15 96 27 0 639 6592 5852 27% 5 539122 164701 82%
c i  2.15 96 27 0 644 6623 5878 27% 5 539122 164700 82%
c i  2.21 96 27 0 662 6806 6022 27% 5 539122 164691 82%
c i  2.22 96 27 0 662 6894 6104 27% 5 539122 164690 82%
c i  2.24 96 27 0 662 6969 6166 27% 5 539122 164689 82%
c i  2.24 96 27 0 662 6985 6181 27% 5 539122 164682 82%
c i  2.24 96 27 0 662 6988 6183 27% 5 539122 164681 82%
c }  2.24 96 26 0 662 7005 6199 27% 5 539122 164681 82%
c 
c  seconds   reductions  redundant   irredundant
c         MB     restarts       trail        variables
c           level   conflicts       glue           remaining
c 
c [  2.24 96 218 0 662 7005 6199 47% 16 539122 164681 82%
c i  2.26 96 212 0 662 7059 6247 47% 15 539122 164680 82%
c i  2.29 96 197 0 663 7223 6392 45% 15 539122 164679 82%
c i  2.29 96 197 0 663 7230 6396 45% 15 539122 164678 82%
c i  2.29 96 195 0 663 7253 6417 45% 14 539122 164677 82%
c i  2.31 96 186 0 663 7378 6499 44% 14 539122 164676 82%
c i  2.32 96 185 0 663 7406 6524 44% 14 539122 164675 82%
c i  2.33 96 182 0 663 7445 6557 44% 14 539122 164674 82%
c i  2.34 96 178 0 663 7504 6597 44% 14 539122 164673 82%
c i  2.35 96 177 0 663 7517 6609 43% 14 539122 164672 82%
c i  2.35 96 177 0 663 7520 6610 43% 14 539122 164665 82%
c i  2.35 96 176 0 663 7524 6610 43% 14 539122 164664 82%
c i  2.37 96 173 0 663 7578 6652 43% 14 539122 164657 82%
c i  2.38 96 170 0 663 7631 6685 43% 13 539122 164656 82%
c i  2.38 96 169 0 663 7641 6691 43% 13 539122 164655 82%
c i  2.39 96 169 0 663 7650 6699 43% 13 539122 164654 82%
c i  2.39 96 168 0 663 7661 6708 43% 13 539122 164647 82%
c i  2.39 96 168 0 663 7666 6712 43% 13 539122 164646 82%
c i  2.40 96 167 0 663 7678 6723 43% 13 539122 164645 82%
c i  2.40 96 166 0 663 7685 6729 43% 13 539122 164638 82%
c 
c  seconds   reductions  redundant   irredundant
c         MB     restarts       trail        variables
c           level   conflicts       glue           remaining
c 
c i  2.40 96 165 0 663 7706 6744 42% 13 539122 164631 82%
c i  2.41 96 163 0 663 7740 6771 42% 13 539122 164630 82%
c i  2.42 96 163 0 663 7744 6774 42% 13 539122 164629 82%
c i  2.42 96 163 0 663 7746 6774 42% 13 539122 164628 82%
c i  2.43 96 160 0 663 7796 6812 42% 13 539122 164627 82%
c i  2.44 96 156 0 663 7867 6870 42% 13 539122 164626 82%
c ]  2.45 96 155 0 663 7892 6881 42% 13 539122 153440 76%
c 0  2.45 96 155 0 663 7892 6881 42% 13 539122 153440 76%
c 
c --- [ result ] -------------------------------------------------------------
c 
s UNSATISFIABLE
c 
c --- [ run-time profiling ] -------------------------------------------------
c 
c process time taken by individual solving procedures
c (percentage relative to process time for solving)
c 
c         2.35  100.00% search
c         1.83   77.79% unstable
c         0.49   21.04% stable
c         0.10    4.12% parse
c         0.03    1.16% lucky
c         0.00    0.00% simplify
c   =================================
c         2.35   96.03% solve
c 
c last line shows process time for solving
c (percentage relative to total process time)
c 
c --- [ statistics ] ---------------------------------------------------------
c 
c chronological:              3427        43.42 %  of conflicts
c conflicts:                  7892      3356.35    per second
c decisions:                 34605     14717.00    per second
c fixed:                     48389        23.98 %  of all variables
c learned:                    7412        93.92 %  per conflict
c learned_lits:             250189       100.00 %  learned literals
c minimized:                     0         0.00 %  learned literals
c shrunken:                  46685        18.66 %  learned literals
c minishrunken:              24754         9.89 %  learned literals
c otfs:                        150         1.90 %  of conflict
c propagations:           28550507        12.14 M  per second
c rephased:                      3      2630.67    interval
c restarts:                    663        11.90    interval
c stabilizing:                   2        36.57 %  of conflicts
c subsumed:                    434         0.08 %  of all clauses
c strengthened:                148         0.03 %  of all clauses
c 
c seconds are measured in process time for solving
c 
c --- [ resources ] ----------------------------------------------------------
c 
c total process time since initialization:         2.45    seconds
c total real time since initialization:            2.46    seconds
c maximum resident set size of process:           93.96    MB
c 
c --- [ shutting down ] ------------------------------------------------------
c 
c exit 20
